12 32 3 10
13 6 16 1 6 16 11 13 2 11 11 4 10 6 11 13 19 2 16 1 6 20 16 5 7 10 10 1 2 16 13 16 
3.09 5.02 6.13 7.87 3.14 4.26 7.72 4.58 7.07 0.75 2.38 6.27 4.98 7.9 7.96 1.09 3.29 0.04 3.86 4.07 2.88 6.23 0.98 1.57 5.62 4.41 5.28 7.16 6.57 7.79 3.17 4.24 
0.57 2.14 2.61 6.91 0.91 3.6 4.66 0.9 6.17 2.19 5.4 4.47 4.15 6.16 6.03 4.76 0.09 6.57 4.96 2.82 6.05 1.49 5.57 6.95 0.42 7.26 5.1 1.25 5.73 3.11 6.24 0.46 
5.1 4.97 4.18 1.6 4.59 3.78 2.94 3.46 3.05 5.45 1.06 3.04 6.96 1.59 6.84 4.04 4.88 6.34 3.25 3.67 4.47 0.27 2.84 4.93 1.07 2.52 7.58 6.37 4.79 5.33 3.5 6.2 
4 4 4 4 4 4 4 4 4 4 4 4 4 4 4 4 4 4 4 4 4 4 4 4 4 4 4 4 4 4 4 4 
2.13 2.74 7.25 1.01 7.85 6.48 6.46 1.85 6.57 1.7 4.46 0.62 3.46 4.93 7.47 6.21 4.31 0.74 4.79 3.86 0.8 2.8 5.69 1.61 0.82 7.23 3.31 2.29 4.8 2.54 1.58 0.97 
4.26 3.84 5.65 0.54 6.27 1.57 4.4 6.97 5.28 2.2 0.81 0.37 1.55 1.87 3.5 5.98 0.68 1.28 6.94 0.8 5.87 4.22 6.29 0.19 5.84 7.75 6.65 3.98 5.25 3.23 1.98 5.44 
7.11 3.86 4.95 3.42 1.17 3.02 6.47 2.36 4.15 3.61 5.43 7.54 5.95 5.91 7.69 6.59 4.35 0.61 0.52 6.43 7.01 1.78 6.72 0.29 4.7 3.96 0.49 0.24 0.6 4.74 4.82 0.71 
6.51 2.28 5.12 7.89 5.01 2.41 7.03 1.82 3.82 4.06 5.41 4.14 1.82 7.68 4.06 6.98 6.14 1.6 3.09 1.95 3.52 5.98 1.83 0.43 0.77 4.67 7.35 2.81 6.62 4.38 4.38 4.57 
7.89 0.73 7.15 2.17 0.75 7.26 3.14 4.95 7.18 0.3 4.4 7.89 4.33 3.2 6.27 6.38 2.11 6.29 2.83 4.63 6.08 4.16 7.58 2.64 7.37 7.81 5.63 2.33 4.78 2.05 0.6 0.71 
4.43 3.82 1.99 3.9 5.8 2.17 1.52 1.11 1.28 1.06 5.26 6.91 4.62 2.73 3.14 0.1 5.91 3.4 6.99 0.04 1.66 0.28 3.35 3.04 7.59 1.79 4.99 7.57 3.43 1.41 2.56 3.16 
1.34 1.16 2.62 3.22 0.62 7.37 7.66 6.75 1.19 1.74 5.72 7.34 7.55 5.29 2.05 1.3 1.37 0.67 7.78 3.29 4 1.23 3.72 5.62 1.81 6.53 4.43 8 6.7 2.39 7.81 6.18 
7.65 2.74 2.6 0.74 4.45 5.87 5.59 0.66 3.62 3.69 7.21 5.3 1.34 5.92 4.51 7.7 5.22 3.4 2.26 3.09 1.27 2.81 6.12 4.54 7.8 0.41 7.84 2.53 7.28 5.11 0.1 3.65 
1 1 1 1 1 1 1 1 1 1 1 1 1 1 1 1 1 1 1 1 1 1 1 1 1 1 1 1 1 1 1 1 
1 1 1 1 1 1 1 1 1 1 1 1 1 1 1 1 1 1 1 1 1 1 1 1 1 1 1 1 1 1 1 1 
1 1 1 1 1 1 1 1 1 1 1 1 1 1 1 1 1 1 1 1 1 1 1 1 1 1 1 1 1 1 1 1 
1 1 1 1 1 1 1 1 1 1 1 1 1 1 1 1 1 1 1 1 1 1 1 1 1 1 1 1 1 1 1 1 
1 1 1 1 1 1 1 1 1 1 1 1 1 1 1 1 1 1 1 1 1 1 1 1 1 1 1 1 1 1 1 1 
1 1 1 1 1 1 1 1 1 1 1 1 1 1 1 1 1 1 1 1 1 1 1 1 1 1 1 1 1 1 1 1 
1 1 1 1 1 1 1 1 1 1 1 1 1 1 1 1 1 1 1 1 1 1 1 1 1 1 1 1 1 1 1 1 
1 1 1 1 1 1 1 1 1 1 1 1 1 1 1 1 1 1 1 1 1 1 1 1 1 1 1 1 1 1 1 1 
1 1 1 1 1 1 1 1 1 1 1 1 1 1 1 1 1 1 1 1 1 1 1 1 1 1 1 1 1 1 1 1 
1 1 1 1 1 1 1 1 1 1 1 1 1 1 1 1 1 1 1 1 1 1 1 1 1 1 1 1 1 1 1 1 
1 1 1 1 1 1 1 1 1 1 1 1 1 1 1 1 1 1 1 1 1 1 1 1 1 1 1 1 1 1 1 1 
1 1 1 1 1 1 1 1 1 1 1 1 1 1 1 1 1 1 1 1 1 1 1 1 1 1 1 1 1 1 1 1 
0.01 0.01 0.01 0.01 0.01 0.01 0.01 0.01 0.01 0.01 0.01 0.01 0.01 0.01 0.01 0.01 0.01 0.01 0.01 0.01 0.01 0.01 0.01 0.01 0.01 0.01 0.01 0.01 0.01 0.01 0.01 0.01 
0.02 0.02 0.02 0.02 0.02 0.02 0.02 0.02 0.02 0.02 0.02 0.02 0.02 0.02 0.02 0.02 0.02 0.02 0.02 0.02 0.02 0.02 0.02 0.02 0.02 0.02 0.02 0.02 0.02 0.02 0.02 0.02 
0.03 0.03 0.03 0.03 0.03 0.03 0.03 0.03 0.03 0.03 0.03 0.03 0.03 0.03 0.03 0.03 0.03 0.03 0.03 0.03 0.03 0.03 0.03 0.03 0.03 0.03 0.03 0.03 0.03 0.03 0.03 0.03 
0.04 0.04 0.04 0.04 0.04 0.04 0.04 0.04 0.04 0.04 0.04 0.04 0.04 0.04 0.04 0.04 0.04 0.04 0.04 0.04 0.04 0.04 0.04 0.04 0.04 0.04 0.04 0.04 0.04 0.04 0.04 0.04 
0.125 0.125 0.125 0.125 0.125 0.125 0.125 0.125 0.125 0.125 0.125 0.125 0.125 0.125 0.125 0.125 0.125 0.125 0.125 0.125 0.125 0.125 0.125 0.125 0.125 0.125 0.125 0.125 0.125 0.125 0.125 0.125 
0.25 0.25 0.25 0.25 0.25 0.25 0.25 0.25 0.25 0.25 0.25 0.25 0.25 0.25 0.25 0.25 0.25 0.25 0.25 0.25 0.25 0.25 0.25 0.25 0.25 0.25 0.25 0.25 0.25 0.25 0.25 0.25 
0.375 0.375 0.375 0.375 0.375 0.375 0.375 0.375 0.375 0.375 0.375 0.375 0.375 0.375 0.375 0.375 0.375 0.375 0.375 0.375 0.375 0.375 0.375 0.375 0.375 0.375 0.375 0.375 0.375 0.375 0.375 0.375 
0.5 0.5 0.5 0.5 0.5 0.5 0.5 0.5 0.5 0.5 0.5 0.5 0.5 0.5 0.5 0.5 0.5 0.5 0.5 0.5 0.5 0.5 0.5 0.5 0.5 0.5 0.5 0.5 0.5 0.5 0.5 0.5 
0.625 0.625 0.625 0.625 0.625 0.625 0.625 0.625 0.625 0.625 0.625 0.625 0.625 0.625 0.625 0.625 0.625 0.625 0.625 0.625 0.625 0.625 0.625 0.625 0.625 0.625 0.625 0.625 0.625 0.625 0.625 0.625 
0.75 0.75 0.75 0.75 0.75 0.75 0.75 0.75 0.75 0.75 0.75 0.75 0.75 0.75 0.75 0.75 0.75 0.75 0.75 0.75 0.75 0.75 0.75 0.75 0.75 0.75 0.75 0.75 0.75 0.75 0.75 0.75 
0.875 0.875 0.875 0.875 0.875 0.875 0.875 0.875 0.875 0.875 0.875 0.875 0.875 0.875 0.875 0.875 0.875 0.875 0.875 0.875 0.875 0.875 0.875 0.875 0.875 0.875 0.875 0.875 0.875 0.875 0.875 0.875 
1 1 1 1 1 1 1 1 1 1 1 1 1 1 1 1 1 1 1 1 1 1 1 1 1 1 1 1 1 1 1 1 
